<?xml version = "1.0" encoding="UTF-8" standalone="yes"?>
<CPLEXSolution version="1.2">
 <header
   problemName="results/InstanceB6_bigm_finsteps123.lp"
   solutionName="incumbent"
   solutionIndex="-1"
   objectiveValue="1.9999999999999998"
   solutionTypeValue="3"
   solutionTypeString="primal"
   solutionStatusValue="101"
   solutionStatusString="integer optimal solution"
   solutionMethodString="mip"
   primalFeasible="1"
   dualFeasible="1"
   MIPNodes="0"
   MIPIterations="69"
   writeLevel="1"/>
 <quality
   epInt="1.0000000000000001e-05"
   epRHS="9.9999999999999995e-07"
   maxIntInfeas="2.2204460492503131e-16"
   maxPrimalInfeas="2.2737367544323206e-13"
   maxX="43200"
   maxSlack="43112"/>
 <linearConstraints>
  <constraint name="c1" index="0" slack="-548.99999999999272"/>
  <constraint name="c2" index="1" slack="0"/>
  <constraint name="c3" index="2" slack="-7.2759576141834259e-12"/>
  <constraint name="c4" index="3" slack="0"/>
  <constraint name="c5" index="4" slack="0"/>
  <constraint name="c6" index="5" slack="0"/>
  <constraint name="c7" index="6" slack="0"/>
  <constraint name="c8" index="7" slack="0"/>
  <constraint name="c9" index="8" slack="0"/>
  <constraint name="c10" index="9" slack="0"/>
  <constraint name="c11" index="10" slack="0"/>
  <constraint name="c12" index="11" slack="0"/>
  <constraint name="c13" index="12" slack="0"/>
  <constraint name="c14" index="13" slack="0"/>
  <constraint name="c15" index="14" slack="0"/>
  <constraint name="c16" index="15" slack="0"/>
  <constraint name="c17" index="16" slack="0"/>
  <constraint name="c18" index="17" slack="0"/>
  <constraint name="c19" index="18" slack="0"/>
  <constraint name="c20" index="19" slack="0"/>
  <constraint name="c21" index="20" slack="0"/>
  <constraint name="c22" index="21" slack="-38499"/>
  <constraint name="c23" index="22" slack="0"/>
  <constraint name="c24" index="23" slack="0"/>
  <constraint name="c25" index="24" slack="-34"/>
  <constraint name="c26" index="25" slack="0"/>
  <constraint name="c27" index="26" slack="0"/>
  <constraint name="c28" index="27" slack="0"/>
  <constraint name="c29" index="28" slack="0"/>
  <constraint name="c30" index="29" slack="0"/>
  <constraint name="c31" index="30" slack="0"/>
  <constraint name="c32" index="31" slack="0"/>
  <constraint name="c33" index="32" slack="0"/>
  <constraint name="c34" index="33" slack="0"/>
  <constraint name="c35" index="34" slack="-91.999999999985448"/>
  <constraint name="c36" index="35" slack="0"/>
  <constraint name="c37" index="36" slack="-7.2759576141834259e-12"/>
  <constraint name="c38" index="37" slack="0"/>
  <constraint name="c39" index="38" slack="0"/>
  <constraint name="c40" index="39" slack="0"/>
  <constraint name="c41" index="40" slack="0"/>
  <constraint name="c42" index="41" slack="0"/>
  <constraint name="c43" index="42" slack="0"/>
  <constraint name="c44" index="43" slack="0"/>
  <constraint name="c45" index="44" slack="0"/>
  <constraint name="c46" index="45" slack="0"/>
  <constraint name="c47" index="46" slack="0"/>
  <constraint name="c48" index="47" slack="0"/>
  <constraint name="c49" index="48" slack="0"/>
  <constraint name="c50" index="49" slack="0"/>
  <constraint name="c51" index="50" slack="0"/>
  <constraint name="c52" index="51" slack="0"/>
  <constraint name="c53" index="52" slack="0"/>
  <constraint name="c54" index="53" slack="0"/>
  <constraint name="c55" index="54" slack="0"/>
  <constraint name="c56" index="55" slack="0"/>
  <constraint name="c57" index="56" slack="0"/>
  <constraint name="c58" index="57" slack="0"/>
  <constraint name="c59" index="58" slack="0"/>
  <constraint name="c60" index="59" slack="0"/>
  <constraint name="c61" index="60" slack="0"/>
  <constraint name="c62" index="61" slack="0"/>
  <constraint name="c63" index="62" slack="0"/>
  <constraint name="c64" index="63" slack="0"/>
  <constraint name="c65" index="64" slack="0"/>
  <constraint name="c66" index="65" slack="0"/>
  <constraint name="c67" index="66" slack="0"/>
  <constraint name="c68" index="67" slack="0"/>
  <constraint name="c69" index="68" slack="0"/>
  <constraint name="c70" index="69" slack="0"/>
  <constraint name="c71" index="70" slack="0"/>
  <constraint name="c72" index="71" slack="0"/>
  <constraint name="c73" index="72" slack="0"/>
  <constraint name="c74" index="73" slack="0"/>
  <constraint name="c75" index="74" slack="0"/>
  <constraint name="c76" index="75" slack="0"/>
  <constraint name="c77" index="76" slack="0"/>
  <constraint name="c78" index="77" slack="0"/>
  <constraint name="c79" index="78" slack="0"/>
  <constraint name="c80" index="79" slack="0"/>
  <constraint name="c81" index="80" slack="0"/>
  <constraint name="c82" index="81" slack="0"/>
  <constraint name="c83" index="82" slack="0"/>
  <constraint name="c84" index="83" slack="0"/>
  <constraint name="c85" index="84" slack="0"/>
  <constraint name="c86" index="85" slack="0"/>
  <constraint name="c87" index="86" slack="0"/>
  <constraint name="c88" index="87" slack="0"/>
  <constraint name="c89" index="88" slack="0"/>
  <constraint name="c90" index="89" slack="0"/>
  <constraint name="c91" index="90" slack="0"/>
  <constraint name="c92" index="91" slack="0"/>
  <constraint name="c93" index="92" slack="0"/>
  <constraint name="c94" index="93" slack="0"/>
  <constraint name="c95" index="94" slack="0"/>
  <constraint name="c96" index="95" slack="0"/>
  <constraint name="c97" index="96" slack="0"/>
  <constraint name="c98" index="97" slack="0"/>
  <constraint name="c99" index="98" slack="0"/>
  <constraint name="c100" index="99" slack="0"/>
  <constraint name="c101" index="100" slack="0"/>
  <constraint name="c102" index="101" slack="0"/>
  <constraint name="c103" index="102" slack="0"/>
  <constraint name="c104" index="103" slack="0"/>
  <constraint name="c105" index="104" slack="0"/>
  <constraint name="c106" index="105" slack="0"/>
  <constraint name="c107" index="106" slack="0"/>
  <constraint name="c108" index="107" slack="0"/>
  <constraint name="c109" index="108" slack="0"/>
  <constraint name="c110" index="109" slack="0"/>
  <constraint name="c111" index="110" slack="0"/>
  <constraint name="c112" index="111" slack="0"/>
  <constraint name="c113" index="112" slack="0"/>
  <constraint name="c114" index="113" slack="0"/>
  <constraint name="c115" index="114" slack="0"/>
  <constraint name="c116" index="115" slack="0"/>
  <constraint name="c117" index="116" slack="0"/>
  <constraint name="c118" index="117" slack="0"/>
  <constraint name="c119" index="118" slack="0"/>
  <constraint name="c120" index="119" slack="0"/>
  <constraint name="c121" index="120" slack="0"/>
  <constraint name="c122" index="121" slack="0"/>
  <constraint name="c123" index="122" slack="0"/>
  <constraint name="c124" index="123" slack="0"/>
  <constraint name="c125" index="124" slack="0"/>
  <constraint name="c126" index="125" slack="0"/>
  <constraint name="c127" index="126" slack="0"/>
  <constraint name="c128" index="127" slack="0"/>
  <constraint name="c129" index="128" slack="0"/>
  <constraint name="c130" index="129" slack="0"/>
  <constraint name="c131" index="130" slack="0"/>
  <constraint name="c132" index="131" slack="0"/>
  <constraint name="c133" index="132" slack="0"/>
  <constraint name="c134" index="133" slack="0"/>
  <constraint name="c135" index="134" slack="0"/>
  <constraint name="c136" index="135" slack="0"/>
  <constraint name="c137" index="136" slack="0"/>
  <constraint name="c138" index="137" slack="0"/>
  <constraint name="c139" index="138" slack="0"/>
  <constraint name="c140" index="139" slack="0"/>
  <constraint name="c141" index="140" slack="0"/>
  <constraint name="c142" index="141" slack="0"/>
  <constraint name="c143" index="142" slack="0"/>
  <constraint name="c144" index="143" slack="0"/>
  <constraint name="c145" index="144" slack="0"/>
  <constraint name="c146" index="145" slack="0"/>
  <constraint name="c147" index="146" slack="0"/>
  <constraint name="c148" index="147" slack="0"/>
  <constraint name="c149" index="148" slack="0"/>
  <constraint name="c150" index="149" slack="0"/>
  <constraint name="c151" index="150" slack="0"/>
  <constraint name="c152" index="151" slack="0"/>
  <constraint name="c153" index="152" slack="771.00000000000728"/>
  <constraint name="c154" index="153" slack="41719.999999999993"/>
  <constraint name="c155" index="154" slack="1143"/>
  <constraint name="c156" index="155" slack="41529"/>
  <constraint name="c157" index="156" slack="1048"/>
  <constraint name="c158" index="157" slack="41607"/>
  <constraint name="c159" index="158" slack="518"/>
  <constraint name="c160" index="159" slack="41972"/>
  <constraint name="c161" index="160" slack="517"/>
  <constraint name="c162" index="161" slack="42262"/>
  <constraint name="c163" index="162" slack="268"/>
  <constraint name="c164" index="163" slack="42143"/>
  <constraint name="c165" index="164" slack="4283.0000000000073"/>
  <constraint name="c166" index="165" slack="38207.999999999993"/>
  <constraint name="c167" index="166" slack="4655"/>
  <constraint name="c168" index="167" slack="38028"/>
  <constraint name="c169" index="168" slack="4549"/>
  <constraint name="c170" index="169" slack="38095"/>
  <constraint name="c171" index="170" slack="4030"/>
  <constraint name="c172" index="171" slack="38438"/>
  <constraint name="c173" index="172" slack="4051"/>
  <constraint name="c174" index="173" slack="38749"/>
  <constraint name="c175" index="174" slack="3781"/>
  <constraint name="c176" index="175" slack="38631"/>
  <constraint name="c177" index="176" slack="1343.0000000000073"/>
  <constraint name="c178" index="177" slack="41247.999999999993"/>
  <constraint name="c179" index="178" slack="875"/>
  <constraint name="c180" index="179" slack="41857"/>
  <constraint name="c181" index="180" slack="300"/>
  <constraint name="c182" index="181" slack="42325"/>
  <constraint name="c183" index="182" slack="42430"/>
  <constraint name="c184" index="183" slack="30"/>
  <constraint name="c185" index="184" slack="42009"/>
  <constraint name="c186" index="185" slack="770"/>
  <constraint name="c187" index="186" slack="41280"/>
  <constraint name="c188" index="187" slack="1191"/>
  <constraint name="c189" index="188" slack="274"/>
  <constraint name="c190" index="189" slack="42581"/>
  <constraint name="c191" index="190" slack="42975"/>
  <constraint name="c192" index="191" slack="0"/>
  <constraint name="c193" index="192" slack="42900"/>
  <constraint name="c194" index="193" slack="225"/>
  <constraint name="c195" index="194" slack="42630"/>
  <constraint name="c196" index="195" slack="300"/>
  <constraint name="c197" index="196" slack="42461"/>
  <constraint name="c198" index="197" slack="630"/>
  <constraint name="c199" index="198" slack="3786"/>
  <constraint name="c200" index="199" slack="39069"/>
  <constraint name="c201" index="200" slack="3287"/>
  <constraint name="c202" index="201" slack="39688"/>
  <constraint name="c203" index="202" slack="3212"/>
  <constraint name="c204" index="203" slack="39913"/>
  <constraint name="c205" index="204" slack="2942"/>
  <constraint name="c206" index="205" slack="39988"/>
  <constraint name="c207" index="206" slack="2702"/>
  <constraint name="c208" index="207" slack="40318"/>
  <constraint name="c209" index="208" slack="2402"/>
  <constraint name="c210" index="209" slack="40558"/>
  <constraint name="c211" index="210" slack="2027.0000000000146"/>
  <constraint name="c212" index="211" slack="40949.999999999985"/>
  <constraint name="c213" index="212" slack="1680.0000000000073"/>
  <constraint name="c214" index="213" slack="41172.999999999993"/>
  <constraint name="c215" index="214" slack="3306"/>
  <constraint name="c216" index="215" slack="39519"/>
  <constraint name="c217" index="216" slack="3422"/>
  <constraint name="c218" index="217" slack="39598"/>
  <constraint name="c219" index="218" slack="3482"/>
  <constraint name="c220" index="219" slack="39658"/>
  <constraint name="c221" index="220" slack="3362"/>
  <constraint name="c222" index="221" slack="39538"/>
  <constraint name="c223" index="222" slack="3422"/>
  <constraint name="c224" index="223" slack="39598"/>
  <constraint name="c225" index="224" slack="3422"/>
  <constraint name="c226" index="225" slack="39598"/>
  <constraint name="c227" index="226" slack="3310.0000000000146"/>
  <constraint name="c228" index="227" slack="39657.999999999985"/>
  <constraint name="c229" index="228" slack="3242.0000000000073"/>
  <constraint name="c230" index="229" slack="39589.999999999993"/>
  <constraint name="c231" index="230" slack="3422"/>
  <constraint name="c232" index="231" slack="39669"/>
  <constraint name="c233" index="232" slack="3392"/>
  <constraint name="c234" index="233" slack="39568"/>
  <constraint name="c235" index="234" slack="3467"/>
  <constraint name="c236" index="235" slack="39643"/>
  <constraint name="c237" index="236" slack="3377"/>
  <constraint name="c238" index="237" slack="39553"/>
  <constraint name="c239" index="238" slack="3302"/>
  <constraint name="c240" index="239" slack="39478"/>
  <constraint name="c241" index="240" slack="3362"/>
  <constraint name="c242" index="241" slack="39538"/>
  <constraint name="c243" index="242" slack="3362"/>
  <constraint name="c244" index="243" slack="39538"/>
  <constraint name="c245" index="244" slack="3422"/>
  <constraint name="c246" index="245" slack="39598"/>
  <constraint name="c247" index="246" slack="3341"/>
  <constraint name="c248" index="247" slack="39517"/>
  <constraint name="c249" index="248" slack="3429"/>
  <constraint name="c250" index="249" slack="39605"/>
  <constraint name="c251" index="250" slack="3386"/>
  <constraint name="c252" index="251" slack="39562"/>
  <constraint name="c253" index="252" slack="3032"/>
  <constraint name="c254" index="253" slack="39208"/>
  <constraint name="c255" index="254" slack="3272"/>
  <constraint name="c256" index="255" slack="39459"/>
  <constraint name="c257" index="256" slack="3291"/>
  <constraint name="c258" index="257" slack="39478"/>
  <constraint name="c259" index="258" slack="3272"/>
  <constraint name="c260" index="259" slack="39426"/>
  <constraint name="c261" index="260" slack="3354"/>
  <constraint name="c262" index="261" slack="39507"/>
  <constraint name="c263" index="262" slack="3153"/>
  <constraint name="c264" index="263" slack="39328"/>
  <constraint name="c265" index="264" slack="4142"/>
  <constraint name="c266" index="265" slack="38949"/>
  <constraint name="c267" index="266" slack="3812"/>
  <constraint name="c268" index="267" slack="39118"/>
  <constraint name="c269" index="268" slack="3737"/>
  <constraint name="c270" index="269" slack="39388"/>
  <constraint name="c271" index="270" slack="3512"/>
  <constraint name="c272" index="271" slack="39463"/>
  <constraint name="c273" index="272" slack="2822"/>
  <constraint name="c274" index="273" slack="39928"/>
  <constraint name="c275" index="274" slack="2462"/>
  <constraint name="c276" index="275" slack="40438"/>
  <constraint name="c277" index="276" slack="2162"/>
  <constraint name="c278" index="277" slack="40798"/>
  <constraint name="c279" index="278" slack="1862"/>
  <constraint name="c280" index="279" slack="41098"/>
  <constraint name="c281" index="280" slack="1413"/>
  <constraint name="c282" index="281" slack="41398"/>
  <constraint name="c283" index="282" slack="1261"/>
  <constraint name="c284" index="283" slack="41787"/>
  <constraint name="c285" index="284" slack="1032"/>
  <constraint name="c286" index="285" slack="41939"/>
  <constraint name="c287" index="286" slack="92"/>
  <constraint name="c288" index="287" slack="42248"/>
  <constraint name="c289" index="288" slack="42692"/>
  <constraint name="c290" index="289" slack="88"/>
  <constraint name="c291" index="290" slack="42242"/>
  <constraint name="c292" index="291" slack="508"/>
  <constraint name="c293" index="292" slack="41672"/>
  <constraint name="c294" index="293" slack="1018"/>
  <constraint name="c295" index="294" slack="41312"/>
  <constraint name="c296" index="295" slack="1528"/>
  <constraint name="c297" index="296" slack="40652"/>
  <constraint name="c298" index="297" slack="1888"/>
  <constraint name="c299" index="298" slack="1405"/>
  <constraint name="c300" index="299" slack="41460"/>
  <constraint name="c301" index="300" slack="1170"/>
  <constraint name="c302" index="301" slack="41795"/>
  <constraint name="c303" index="302" slack="870"/>
  <constraint name="c304" index="303" slack="42090"/>
  <constraint name="c305" index="304" slack="630"/>
  <constraint name="c306" index="305" slack="42390"/>
  <constraint name="c307" index="306" slack="300"/>
  <constraint name="c308" index="307" slack="42630"/>
  <constraint name="c309" index="308" slack="225"/>
  <constraint name="c310" index="309" slack="42900"/>
  <constraint name="c311" index="310" slack="0"/>
  <constraint name="c312" index="311" slack="42975"/>
  <constraint name="c313" index="312" slack="42510"/>
  <constraint name="c314" index="313" slack="240"/>
  <constraint name="c315" index="314" slack="42150"/>
  <constraint name="c316" index="315" slack="750"/>
  <constraint name="c317" index="316" slack="41850"/>
  <constraint name="c318" index="317" slack="1110"/>
  <constraint name="c319" index="318" slack="41550"/>
  <constraint name="c320" index="319" slack="1410"/>
  <constraint name="c321" index="320" slack="41101"/>
  <constraint name="c322" index="321" slack="1710"/>
  <constraint name="c323" index="322" slack="40949"/>
  <constraint name="c324" index="323" slack="2099"/>
  <constraint name="c325" index="324" slack="40720"/>
  <constraint name="c326" index="325" slack="2251"/>
  <constraint name="c327" index="326" slack="39780"/>
  <constraint name="c328" index="327" slack="2560"/>
  <constraint name="c329" index="328" slack="39191"/>
  <constraint name="c330" index="329" slack="3600"/>
  <constraint name="c331" index="330" slack="38730"/>
  <constraint name="c332" index="331" slack="4009"/>
  <constraint name="c333" index="332" slack="38138"/>
  <constraint name="c334" index="333" slack="4530"/>
  <constraint name="c335" index="334" slack="37799"/>
  <constraint name="c336" index="335" slack="5062"/>
  <constraint name="c337" index="336" slack="37140"/>
  <constraint name="c338" index="337" slack="5401"/>
  <constraint name="c339" index="338" slack="0"/>
  <constraint name="c340" index="339" slack="180"/>
  <constraint name="c341" index="340" slack="360"/>
  <constraint name="c342" index="341" slack="43020.000000000007"/>
  <constraint name="c343" index="342" slack="-2.2737367544323206e-13"/>
  <constraint name="c344" index="343" slack="180.00000000000728"/>
  <constraint name="c345" index="344" slack="43112"/>
  <constraint name="c346" index="345" slack="92"/>
  <constraint name="c347" index="346" slack="272"/>
  <constraint name="c348" index="347" slack="0"/>
  <constraint name="c349" index="348" slack="180"/>
  <constraint name="c350" index="349" slack="360"/>
  <constraint name="c351" index="350" slack="0"/>
  <constraint name="c352" index="351" slack="180"/>
  <constraint name="c353" index="352" slack="360"/>
 </linearConstraints>
 <variables>
  <variable name="thr_0_21_0" index="0" value="-0"/>
  <variable name="thr_0_21_180" index="1" value="-0"/>
  <variable name="thr_0_21_360" index="2" value="-0"/>
  <variable name="thr_1_15_0" index="3" value="1"/>
  <variable name="thr_1_15_180" index="4" value="-1.7357183172746067e-16"/>
  <variable name="thr_1_15_360" index="5" value="-0"/>
  <variable name="thr_2_33_0" index="6" value="1"/>
  <variable name="thr_2_33_180" index="7" value="-0"/>
  <variable name="thr_2_33_360" index="8" value="-0"/>
  <variable name="thr_3_39_0" index="9" value="-0"/>
  <variable name="thr_3_39_180" index="10" value="-0"/>
  <variable name="thr_3_39_360" index="11" value="-0"/>
  <variable name="thr_4_39_0" index="12" value="-0"/>
  <variable name="thr_4_39_180" index="13" value="-0"/>
  <variable name="thr_4_39_360" index="14" value="-0"/>
  <variable name="t_0_0" index="15" value="0"/>
  <variable name="t_0_1" index="16" value="548.99999999999272"/>
  <variable name="t_0_2" index="17" value="777.99999999999272"/>
  <variable name="t_0_3" index="18" value="778"/>
  <variable name="t_0_4" index="19" value="1066"/>
  <variable name="t_0_5" index="20" value="1066"/>
  <variable name="t_0_6" index="21" value="1401"/>
  <variable name="t_0_7" index="22" value="1701"/>
  <variable name="t_0_8" index="23" value="2171"/>
  <variable name="t_0_9" index="24" value="2171"/>
  <variable name="t_0_10" index="25" value="2412"/>
  <variable name="t_0_11" index="26" value="2412"/>
  <variable name="t_0_12" index="27" value="2841"/>
  <variable name="t_0_13" index="28" value="3081"/>
  <variable name="t_0_14" index="29" value="3453"/>
  <variable name="t_0_15" index="30" value="3453"/>
  <variable name="t_0_16" index="31" value="3720"/>
  <variable name="t_0_17" index="32" value="3720"/>
  <variable name="t_0_18" index="33" value="4200"/>
  <variable name="t_0_19" index="34" value="4200"/>
  <variable name="t_0_20" index="35" value="4415"/>
  <variable name="t_0_21" index="36" value="4415"/>
  <variable name="t_0_22" index="37" value="43200"/>
  <variable name="t_1_0" index="38" value="0"/>
  <variable name="t_1_1" index="39" value="0"/>
  <variable name="t_1_2" index="40" value="135"/>
  <variable name="t_1_3" index="41" value="349"/>
  <variable name="t_1_4" index="42" value="439"/>
  <variable name="t_1_5" index="43" value="439"/>
  <variable name="t_1_6" index="44" value="469"/>
  <variable name="t_1_7" index="45" value="469"/>
  <variable name="t_1_8" index="46" value="619"/>
  <variable name="t_1_9" index="47" value="649"/>
  <variable name="t_1_10" index="48" value="739"/>
  <variable name="t_1_11" index="49" value="769"/>
  <variable name="t_1_12" index="50" value="859"/>
  <variable name="t_1_13" index="51" value="980.99999999998545"/>
  <variable name="t_1_14" index="52" value="1090.9999999999854"/>
  <variable name="t_1_15" index="53" value="1090.9999999999927"/>
  <variable name="t_1_16" index="54" value="1280.9999999999927"/>
  <variable name="t_2_0" index="55" value="0"/>
  <variable name="t_2_1" index="56" value="0"/>
  <variable name="t_2_2" index="57" value="19"/>
  <variable name="t_2_3" index="58" value="49"/>
  <variable name="t_2_4" index="59" value="169"/>
  <variable name="t_2_5" index="60" value="169"/>
  <variable name="t_2_6" index="61" value="214"/>
  <variable name="t_2_7" index="62" value="214"/>
  <variable name="t_2_8" index="63" value="349"/>
  <variable name="t_2_9" index="64" value="409"/>
  <variable name="t_2_10" index="65" value="619"/>
  <variable name="t_2_11" index="66" value="649"/>
  <variable name="t_2_12" index="67" value="799"/>
  <variable name="t_2_13" index="68" value="829"/>
  <variable name="t_2_14" index="69" value="979"/>
  <variable name="t_2_15" index="70" value="1009"/>
  <variable name="t_2_16" index="71" value="1099"/>
  <variable name="t_2_17" index="72" value="1129"/>
  <variable name="t_2_18" index="73" value="1300"/>
  <variable name="t_2_19" index="74" value="1300"/>
  <variable name="t_2_20" index="75" value="1383"/>
  <variable name="t_2_21" index="76" value="1383"/>
  <variable name="t_2_22" index="77" value="1509"/>
  <variable name="t_2_23" index="78" value="1549"/>
  <variable name="t_2_24" index="79" value="2029"/>
  <variable name="t_2_25" index="80" value="2209"/>
  <variable name="t_2_26" index="81" value="2449"/>
  <variable name="t_2_27" index="82" value="2449"/>
  <variable name="t_2_28" index="83" value="2659"/>
  <variable name="t_2_29" index="84" value="2689"/>
  <variable name="t_2_30" index="85" value="2929"/>
  <variable name="t_2_31" index="86" value="2929"/>
  <variable name="t_2_32" index="87" value="3109"/>
  <variable name="t_2_33" index="88" value="3109"/>
  <variable name="t_2_34" index="89" value="3469"/>
  <variable name="t_3_0" index="90" value="2901"/>
  <variable name="t_3_1" index="91" value="2961"/>
  <variable name="t_3_2" index="92" value="3118"/>
  <variable name="t_3_3" index="93" value="3118"/>
  <variable name="t_3_4" index="94" value="3231"/>
  <variable name="t_3_5" index="95" value="3261"/>
  <variable name="t_3_6" index="96" value="3411"/>
  <variable name="t_3_7" index="97" value="3441"/>
  <variable name="t_3_8" index="98" value="3531"/>
  <variable name="t_3_9" index="99" value="3561"/>
  <variable name="t_3_10" index="100" value="3681"/>
  <variable name="t_3_11" index="101" value="3681"/>
  <variable name="t_3_12" index="102" value="3726"/>
  <variable name="t_3_13" index="103" value="3726"/>
  <variable name="t_3_14" index="104" value="3861"/>
  <variable name="t_3_15" index="105" value="3921"/>
  <variable name="t_3_16" index="106" value="4131"/>
  <variable name="t_3_17" index="107" value="4161"/>
  <variable name="t_3_18" index="108" value="4311"/>
  <variable name="t_3_19" index="109" value="4341"/>
  <variable name="t_3_20" index="110" value="4491"/>
  <variable name="t_3_21" index="111" value="4521"/>
  <variable name="t_3_22" index="112" value="4611"/>
  <variable name="t_3_23" index="113" value="4641"/>
  <variable name="t_3_24" index="114" value="4812"/>
  <variable name="t_3_25" index="115" value="4812"/>
  <variable name="t_3_26" index="116" value="4895"/>
  <variable name="t_3_27" index="117" value="4895"/>
  <variable name="t_3_28" index="118" value="5021"/>
  <variable name="t_3_29" index="119" value="5061"/>
  <variable name="t_3_30" index="120" value="5541"/>
  <variable name="t_3_31" index="121" value="5721"/>
  <variable name="t_3_32" index="122" value="5950"/>
  <variable name="t_3_33" index="123" value="5950"/>
  <variable name="t_3_34" index="124" value="6171"/>
  <variable name="t_3_35" index="125" value="6201"/>
  <variable name="t_3_36" index="126" value="6463"/>
  <variable name="t_3_37" index="127" value="6463"/>
  <variable name="t_3_38" index="128" value="6622"/>
  <variable name="t_3_39" index="129" value="6622"/>
  <variable name="t_3_40" index="130" value="6981"/>
  <variable name="t_4_0" index="131" value="921"/>
  <variable name="t_4_1" index="132" value="921"/>
  <variable name="t_4_2" index="133" value="1221"/>
  <variable name="t_4_3" index="134" value="1221"/>
  <variable name="t_4_4" index="135" value="1401"/>
  <variable name="t_4_5" index="136" value="1401"/>
  <variable name="t_4_6" index="137" value="1671"/>
  <variable name="t_4_7" index="138" value="1701"/>
  <variable name="t_4_8" index="139" value="1941"/>
  <variable name="t_4_9" index="140" value="1941"/>
  <variable name="t_4_10" index="141" value="2121"/>
  <variable name="t_4_11" index="142" value="2121"/>
  <variable name="t_4_12" index="143" value="2501"/>
  <variable name="t_4_13" index="144" value="2541"/>
  <variable name="t_4_14" index="145" value="2644"/>
  <variable name="t_4_15" index="146" value="2644"/>
  <variable name="t_4_16" index="147" value="2713"/>
  <variable name="t_4_17" index="148" value="2713"/>
  <variable name="t_4_18" index="149" value="2931"/>
  <variable name="t_4_19" index="150" value="2961"/>
  <variable name="t_4_20" index="151" value="3111"/>
  <variable name="t_4_21" index="152" value="3141"/>
  <variable name="t_4_22" index="153" value="3231"/>
  <variable name="t_4_23" index="154" value="3261"/>
  <variable name="t_4_24" index="155" value="3411"/>
  <variable name="t_4_25" index="156" value="3441"/>
  <variable name="t_4_26" index="157" value="3681"/>
  <variable name="t_4_27" index="158" value="3861"/>
  <variable name="t_4_28" index="159" value="3951"/>
  <variable name="t_4_29" index="160" value="3951"/>
  <variable name="t_4_30" index="161" value="3981"/>
  <variable name="t_4_31" index="162" value="3981"/>
  <variable name="t_4_32" index="163" value="4131"/>
  <variable name="t_4_33" index="164" value="4161"/>
  <variable name="t_4_34" index="165" value="4251"/>
  <variable name="t_4_35" index="166" value="4281"/>
  <variable name="t_4_36" index="167" value="4371"/>
  <variable name="t_4_37" index="168" value="4401"/>
  <variable name="t_4_38" index="169" value="4523"/>
  <variable name="t_4_39" index="170" value="4523"/>
  <variable name="t_4_40" index="171" value="4701"/>
  <variable name="y_0_1_2_23" index="172" value="1"/>
  <variable name="y_0_3_2_25" index="173" value="1"/>
  <variable name="y_0_5_2_27" index="174" value="1"/>
  <variable name="y_0_7_2_29" index="175" value="1"/>
  <variable name="y_0_9_2_31" index="176" value="1"/>
  <variable name="y_0_11_2_33" index="177" value="1"/>
  <variable name="y_0_1_3_29" index="178" value="1"/>
  <variable name="y_0_3_3_31" index="179" value="1"/>
  <variable name="y_0_5_3_33" index="180" value="1"/>
  <variable name="y_0_7_3_35" index="181" value="1"/>
  <variable name="y_0_9_3_37" index="182" value="1"/>
  <variable name="y_0_11_3_39" index="183" value="1"/>
  <variable name="y_0_1_4_11" index="184" value="1"/>
  <variable name="y_0_3_4_9" index="185" value="1"/>
  <variable name="y_0_5_4_7" index="186" value="1"/>
  <variable name="y_0_7_4_5" index="187" value="-0"/>
  <variable name="y_0_9_4_3" index="188" value="-0"/>
  <variable name="y_0_11_4_1" index="189" value="-0"/>
  <variable name="y_1_1_2_9" index="190" value="1"/>
  <variable name="y_1_3_2_7" index="191" value="-0"/>
  <variable name="y_1_5_2_5" index="192" value="-0"/>
  <variable name="y_1_7_2_3" index="193" value="-0"/>
  <variable name="y_1_9_2_1" index="194" value="-0"/>
  <variable name="y_1_1_3_15" index="195" value="1"/>
  <variable name="y_1_3_3_13" index="196" value="1"/>
  <variable name="y_1_5_3_11" index="197" value="1"/>
  <variable name="y_1_7_3_9" index="198" value="1"/>
  <variable name="y_1_9_3_7" index="199" value="1"/>
  <variable name="y_1_11_3_5" index="200" value="1"/>
  <variable name="y_1_13_3_3" index="201" value="1"/>
  <variable name="y_1_15_3_1" index="202" value="1"/>
  <variable name="y_1_1_4_25" index="203" value="1"/>
  <variable name="y_1_3_4_27" index="204" value="1"/>
  <variable name="y_1_5_4_29" index="205" value="1"/>
  <variable name="y_1_7_4_31" index="206" value="1"/>
  <variable name="y_1_9_4_33" index="207" value="1"/>
  <variable name="y_1_11_4_35" index="208" value="1"/>
  <variable name="y_1_13_4_37" index="209" value="1"/>
  <variable name="y_1_15_4_39" index="210" value="1"/>
  <variable name="y_2_1_3_7" index="211" value="1"/>
  <variable name="y_2_3_3_9" index="212" value="1"/>
  <variable name="y_2_5_3_11" index="213" value="1"/>
  <variable name="y_2_7_3_13" index="214" value="1"/>
  <variable name="y_2_9_3_15" index="215" value="1"/>
  <variable name="y_2_11_3_17" index="216" value="1"/>
  <variable name="y_2_13_3_19" index="217" value="1"/>
  <variable name="y_2_15_3_21" index="218" value="1"/>
  <variable name="y_2_17_3_23" index="219" value="1"/>
  <variable name="y_2_19_3_25" index="220" value="1"/>
  <variable name="y_2_21_3_27" index="221" value="1"/>
  <variable name="y_2_23_3_29" index="222" value="1"/>
  <variable name="y_2_25_3_31" index="223" value="1"/>
  <variable name="y_2_27_3_33" index="224" value="1"/>
  <variable name="y_2_29_3_35" index="225" value="1"/>
  <variable name="y_2_31_3_37" index="226" value="1"/>
  <variable name="y_2_33_3_39" index="227" value="1"/>
  <variable name="y_2_1_4_33" index="228" value="1"/>
  <variable name="y_2_3_4_31" index="229" value="1"/>
  <variable name="y_2_5_4_29" index="230" value="1"/>
  <variable name="y_2_7_4_27" index="231" value="1"/>
  <variable name="y_2_9_4_25" index="232" value="1"/>
  <variable name="y_2_11_4_23" index="233" value="1"/>
  <variable name="y_2_13_4_21" index="234" value="1"/>
  <variable name="y_2_15_4_19" index="235" value="1"/>
  <variable name="y_2_17_4_17" index="236" value="1"/>
  <variable name="y_2_19_4_15" index="237" value="1"/>
  <variable name="y_2_21_4_13" index="238" value="1"/>
  <variable name="y_2_23_4_11" index="239" value="1"/>
  <variable name="y_2_25_4_9" index="240" value="-0"/>
  <variable name="y_2_27_4_7" index="241" value="-0"/>
  <variable name="y_2_29_4_5" index="242" value="-0"/>
  <variable name="y_2_31_4_3" index="243" value="-0"/>
  <variable name="y_2_33_4_1" index="244" value="-0"/>
  <variable name="y_3_1_4_39" index="245" value="1"/>
  <variable name="y_3_3_4_37" index="246" value="1"/>
  <variable name="y_3_5_4_35" index="247" value="1"/>
  <variable name="y_3_7_4_33" index="248" value="1"/>
  <variable name="y_3_9_4_31" index="249" value="1"/>
  <variable name="y_3_11_4_29" index="250" value="1"/>
  <variable name="y_3_13_4_27" index="251" value="1"/>
  <variable name="y_3_15_4_25" index="252" value="-0"/>
  <variable name="y_3_17_4_23" index="253" value="-0"/>
  <variable name="y_3_19_4_21" index="254" value="-0"/>
  <variable name="y_3_21_4_19" index="255" value="-0"/>
  <variable name="y_3_23_4_17" index="256" value="-0"/>
  <variable name="y_3_25_4_15" index="257" value="-0"/>
  <variable name="y_3_27_4_13" index="258" value="-0"/>
  <variable name="y_3_29_4_11" index="259" value="-0"/>
  <variable name="y_3_31_4_9" index="260" value="-0"/>
  <variable name="y_3_33_4_7" index="261" value="-0"/>
  <variable name="y_3_35_4_5" index="262" value="-0"/>
  <variable name="y_3_37_4_3" index="263" value="-0"/>
  <variable name="y_3_39_4_1" index="264" value="-0"/>
 </variables>
</CPLEXSolution>
